
Gurobi 10.0.1 (linux64) logging started Sun Nov 26 15:37:22 2023

Set parameter LogFile to value "ArtificialInstance/ExperimentV2/S3T3K1/BaRo/gurobi1.txt"
Gurobi Optimizer version 10.0.1 build v10.0.1rc0 (linux64)

CPU model: AMD EPYC 7H12 64-Core Processor, instruction set [SSE2|AVX|AVX2]
Thread count: 128 physical cores, 128 logical processors, using up to 32 threads

Academic license 656792 - for non-commercial use only - registered to b.___@student.vu.nl
Optimize a model with 1083 rows, 1601 columns and 5443 nonzeros
Model fingerprint: 0xe9b6e27e
Variable types: 1 continuous, 1600 integer (1600 binary)
Coefficient statistics:
  Matrix range     [1e+00, 4e+01]
  Objective range  [1e+00, 2e+01]
  Bounds range     [1e+00, 1e+00]
  RHS range        [1e+00, 1e+00]
Found heuristic solution: objective 385.5734090
Presolve time: 0.01s
Presolved: 1083 rows, 1601 columns, 5443 nonzeros
Variable types: 1 continuous, 1600 integer (1600 binary)

Root relaxation: objective 3.291937e+01, 963 iterations, 0.02 seconds (0.01 work units)

    Nodes    |    Current Node    |     Objective Bounds      |     Work
 Expl Unexpl |  Obj  Depth IntInf | Incumbent    BestBd   Gap | It/Node Time

     0     0   32.91937    0  168  385.57341   32.91937  91.5%     -    0s
H    0     0                     119.1805905   32.91937  72.4%     -    0s
H    0     0                      65.8387430   32.91937  50.0%     -    0s
H    0     0                      56.0367471   32.91937  41.3%     -    0s
     0     0   37.52782    0  265   56.03675   37.52782  33.0%     -    0s
H    0     0                      48.1483433   37.52782  22.1%     -    0s
     0     0   39.23911    0  252   48.14834   39.23911  18.5%     -    0s
     0     0   41.92601    0  281   48.14834   41.92601  12.9%     -    0s
     0     0   42.33860    0  300   48.14834   42.33860  12.1%     -    0s
     0     0   42.36926    0  199   48.14834   42.36926  12.0%     -    0s
     0     0   42.74799    0  167   48.14834   42.74799  11.2%     -    0s
     0     0   43.09238    0  308   48.14834   43.09238  10.5%     -    0s
     0     0   43.28851    0  338   48.14834   43.28851  10.1%     -    0s
     0     0   43.28851    0  338   48.14834   43.28851  10.1%     -    0s
     0     0   44.12140    0  369   48.14834   44.12140  8.36%     -    0s
     0     0   44.16821    0  336   48.14834   44.16821  8.27%     -    0s
     0     0   44.16821    0  165   48.14834   44.16821  8.27%     -    0s
     0     0   44.16821    0  188   48.14834   44.16821  8.27%     -    0s
     0     0   44.16821    0  261   48.14834   44.16821  8.27%     -    0s
     0     0   44.16821    0  298   48.14834   44.16821  8.27%     -    0s
     0     0   44.16821    0  307   48.14834   44.16821  8.27%     -    0s
     0     0   44.16821    0  260   48.14834   44.16821  8.27%     -    0s
     0     0   44.16821    0  336   48.14834   44.16821  8.27%     -    0s
     0     0   44.16821    0  334   48.14834   44.16821  8.27%     -    0s
     0     0   44.16821    0  335   48.14834   44.16821  8.27%     -    0s
     0     0   44.16821    0  307   48.14834   44.16821  8.27%     -    0s
     0     0   44.16821    0  289   48.14834   44.16821  8.27%     -    0s
     0     0   44.16821    0  306   48.14834   44.16821  8.27%     -    0s
     0     0   44.16821    0  321   48.14834   44.16821  8.27%     -    0s
     0     0   44.16821    0  322   48.14834   44.16821  8.27%     -    0s
     0     0   44.16821    0  298   48.14834   44.16821  8.27%     -    0s
H    0     0                      48.1181009   44.16821  8.21%     -    0s
     0     0   44.16821    0  320   48.11810   44.16821  8.21%     -    0s
     0     0   44.46875    0  344   48.11810   44.46875  7.58%     -    0s
     0     0   44.52661    0  334   48.11810   44.52661  7.46%     -    1s
     0     2   44.52661    0  332   48.11810   44.52661  7.46%     -    1s

Cutting planes:
  Gomory: 4
  Zero half: 48
  RLT: 28

Explored 87 nodes (14008 simplex iterations) in 1.24 seconds (0.73 work units)
Thread count was 32 (of 128 available processors)

Solution count 6: 48.1181 48.1483 56.0367 ... 385.573

Optimal solution found (tolerance 1.00e-04)
Best objective 4.811810091140e+01, best bound 4.811810091140e+01, gap 0.0000%
